p tw 144 23761 2 
1 3 
1 4 
1 5 
1 6 
1 7 
1 8 
1 9 
1 10 
1 11 
1 12 
1 13 
1 18 
1 25 
1 35 
1 37 
1 46 
1 49 
1 57 
1 61 
1 63 
1 73 
1 84 
1 85 
1 88 
1 97 
1 104 
1 109 
1 115 
1 121 
1 125 
1 133 
1 134 
2 3 
2 4 
2 5 
2 6 
2 7 
2 8 
2 9 
2 10 
2 11 
2 12 
2 14 
2 19 
2 26 
2 30 
2 37 
2 38 
2 50 
2 58 
2 62 
2 64 
2 74 
2 81 
2 86 
2 89 
2 98 
2 108 
2 110 
2 111 
2 122 
2 128 
2 134 
2 143 
3 4 
3 5 
3 6 
3 7 
3 8 
3 9 
3 10 
3 11 
3 12 
3 15 
3 20 
3 25 
3 27 
3 39 
3 43 
3 51 
3 60 
3 63 
3 65 
3 75 
3 76 
3 87 
3 90 
3 98 
3 99 
3 111 
3 119 
3 123 
3 130 
3 135 
3 141 
4 5 
4 6 
4 7 
4 8 
4 9 
4 10 
4 11 
4 12 
4 16 
4 24 
4 28 
4 34 
4 39 
4 40 
4 49 
4 52 
4 64 
4 66 
4 74 
4 76 
4 88 
4 95 
4 100 
4 105 
4 112 
4 113 
4 124 
4 127 
4 136 
4 140 
5 6 
5 7 
5 8 
5 9 
5 10 
5 11 
5 12 
5 17 
5 23 
5 29 
5 32 
5 38 
5 41 
5 53 
5 55 
5 65 
5 69 
5 73 
5 77 
5 89 
5 94 
5 101 
5 102 
5 112 
5 113 
5 123 
5 125 
5 137 
5 144 
6 7 
6 8 
6 9 
6 10 
6 11 
6 12 
6 18 
6 21 
6 26 
6 30 
6 40 
6 42 
6 54 
6 56 
6 66 
6 71 
6 78 
6 82 
6 87 
6 90 
6 102 
6 103 
6 109 
6 114 
6 126 
6 132 
6 137 
6 138 
7 8 
7 9 
7 10 
7 11 
7 12 
7 17 
7 19 
7 27 
7 31 
7 43 
7 48 
7 50 
7 55 
7 67 
7 68 
7 79 
7 83 
7 85 
7 91 
7 103 
7 106 
7 115 
7 117 
7 126 
7 127 
7 136 
7 139 
8 9 
8 10 
8 11 
8 12 
8 16 
8 20 
8 31 
8 32 
8 44 
8 45 
8 53 
8 56 
8 62 
8 68 
8 75 
8 80 
8 92 
8 96 
8 97 
8 104 
8 116 
8 118 
8 128 
8 131 
8 138 
8 140 
9 10 
9 11 
9 12 
9 15 
9 21 
9 33 
9 36 
9 42 
9 45 
9 57 
9 59 
9 69 
9 70 
9 79 
9 81 
9 86 
9 93 
9 101 
9 105 
9 116 
9 117 
9 124 
9 129 
9 133 
9 141 
10 11 
10 12 
10 14 
10 22 
10 29 
10 34 
10 46 
10 47 
10 52 
10 58 
10 70 
10 72 
10 80 
10 82 
10 93 
10 94 
10 99 
10 106 
10 114 
10 118 
10 121 
10 130 
10 139 
10 142 
11 12 
11 13 
11 23 
11 33 
11 35 
11 41 
11 47 
11 51 
11 59 
11 67 
11 71 
11 78 
11 83 
11 92 
11 95 
11 100 
11 107 
11 119 
11 120 
11 122 
11 131 
11 142 
11 143 
12 22 
12 24 
12 28 
12 36 
12 44 
12 48 
12 54 
12 60 
12 61 
12 72 
12 77 
12 84 
12 91 
12 96 
12 107 
12 108 
12 110 
12 120 
12 129 
12 132 
12 135 
12 144 
13 14 
13 15 
13 16 
13 17 
13 18 
13 19 
13 20 
13 21 
13 22 
13 23 
13 24 
13 25 
13 33 
13 37 
13 41 
13 49 
13 51 
13 61 
13 67 
13 73 
13 78 
13 85 
13 92 
13 97 
13 100 
13 109 
13 120 
13 121 
13 122 
13 133 
13 142 
14 15 
14 16 
14 17 
14 18 
14 19 
14 20 
14 21 
14 22 
14 23 
14 24 
14 26 
14 29 
14 38 
14 47 
14 50 
14 52 
14 62 
14 72 
14 74 
14 80 
14 86 
14 93 
14 98 
14 99 
14 110 
14 114 
14 121 
14 122 
14 134 
14 139 
15 16 
15 17 
15 18 
15 19 
15 20 
15 21 
15 22 
15 23 
15 24 
15 27 
15 36 
15 39 
15 42 
15 51 
15 59 
15 63 
15 70 
15 75 
15 79 
15 86 
15 87 
15 99 
15 101 
15 111 
15 116 
15 123 
15 124 
15 133 
15 135 
16 17 
16 18 
16 19 
16 20 
16 21 
16 22 
16 23 
16 24 
16 28 
16 31 
16 40 
16 45 
16 52 
16 53 
16 62 
16 64 
16 75 
16 76 
16 88 
16 96 
16 97 
16 100 
16 112 
16 118 
16 124 
16 131 
16 136 
16 138 
17 18 
17 19 
17 20 
17 21 
17 22 
17 23 
17 24 
17 27 
17 29 
17 41 
17 48 
17 50 
17 53 
17 65 
17 68 
17 77 
17 83 
17 85 
17 89 
17 101 
17 106 
17 113 
17 117 
17 125 
17 126 
17 136 
17 137 
18 19 
18 20 
18 21 
18 22 
18 23 
18 24 
18 30 
18 35 
18 42 
18 46 
18 54 
18 57 
18 63 
18 66 
18 78 
18 84 
18 88 
18 90 
18 102 
18 104 
18 114 
18 115 
18 125 
18 126 
18 134 
18 138 
19 20 
19 21 
19 22 
19 23 
19 24 
19 30 
19 31 
19 37 
19 43 
19 55 
19 58 
19 64 
19 67 
19 79 
19 81 
19 89 
19 91 
19 103 
19 108 
19 111 
19 115 
19 127 
19 128 
19 139 
19 143 
20 21 
20 22 
20 23 
20 24 
20 25 
20 32 
20 43 
20 44 
20 56 
20 60 
20 65 
20 68 
20 76 
20 80 
20 90 
20 92 
20 98 
20 104 
20 116 
20 119 
20 128 
20 130 
20 140 
20 141 
21 22 
21 23 
21 24 
21 26 
21 33 
21 40 
21 45 
21 56 
21 57 
21 69 
21 71 
21 81 
21 82 
21 87 
21 93 
21 103 
21 105 
21 109 
21 117 
21 129 
21 132 
21 137 
21 141 
22 23 
22 24 
22 28 
22 34 
22 44 
22 46 
22 54 
22 58 
22 61 
22 70 
22 77 
22 82 
22 91 
22 94 
22 106 
22 107 
22 110 
22 118 
22 129 
22 130 
22 135 
22 142 
23 24 
23 32 
23 35 
23 38 
23 47 
23 55 
23 59 
23 69 
23 71 
23 73 
23 83 
23 94 
23 95 
23 102 
23 107 
23 112 
23 119 
23 123 
23 131 
23 143 
23 144 
24 34 
24 36 
24 39 
24 48 
24 49 
24 60 
24 66 
24 72 
24 74 
24 84 
24 95 
24 96 
24 105 
24 108 
24 113 
24 120 
24 127 
24 132 
24 140 
24 144 
25 26 
25 27 
25 28 
25 29 
25 30 
25 31 
25 32 
25 33 
25 34 
25 35 
25 36 
25 37 
25 43 
25 49 
25 60 
25 61 
25 65 
25 73 
25 76 
25 85 
25 90 
25 97 
25 98 
25 109 
25 119 
25 121 
25 130 
25 133 
25 141 
26 27 
26 28 
26 29 
26 30 
26 31 
26 32 
26 33 
26 34 
26 35 
26 36 
26 38 
26 40 
26 50 
26 56 
26 62 
26 71 
26 74 
26 82 
26 86 
26 87 
26 98 
26 103 
26 109 
26 110 
26 122 
26 132 
26 134 
26 137 
27 28 
27 29 
27 30 
27 31 
27 32 
27 33 
27 34 
27 35 
27 36 
27 39 
27 48 
27 50 
27 51 
27 63 
27 68 
27 75 
27 83 
27 85 
27 87 
27 99 
27 106 
27 111 
27 117 
27 123 
27 126 
27 135 
27 136 
28 29 
28 30 
28 31 
28 32 
28 33 
28 34 
28 35 
28 36 
28 40 
28 44 
28 52 
28 54 
28 61 
28 64 
28 76 
28 77 
28 88 
28 91 
28 100 
28 107 
28 110 
28 112 
28 124 
28 129 
28 135 
28 136 
29 30 
29 31 
29 32 
29 33 
29 34 
29 35 
29 36 
29 41 
29 47 
29 52 
29 53 
29 65 
29 72 
29 77 
29 80 
29 89 
29 93 
29 99 
29 101 
29 113 
29 114 
29 121 
29 125 
29 137 
29 139 
30 31 
30 32 
30 33 
30 34 
30 35 
30 36 
30 37 
30 42 
30 54 
30 58 
30 64 
30 66 
30 78 
30 81 
30 89 
30 90 
30 102 
30 108 
30 111 
30 114 
30 126 
30 128 
30 138 
30 143 
31 32 
31 33 
31 34 
31 35 
31 36 
31 43 
31 45 
31 53 
31 55 
31 62 
31 67 
31 75 
31 79 
31 91 
31 96 
31 97 
31 103 
31 115 
31 118 
31 127 
31 131 
31 138 
31 139 
32 33 
32 34 
32 35 
32 36 
32 38 
32 44 
32 55 
32 56 
32 68 
32 69 
32 73 
32 80 
32 92 
32 94 
32 102 
32 104 
32 112 
32 116 
32 123 
32 128 
32 140 
32 144 
33 34 
33 35 
33 36 
33 41 
33 45 
33 51 
33 57 
33 67 
33 69 
33 78 
33 81 
33 92 
33 93 
33 100 
33 105 
33 117 
33 120 
33 122 
33 129 
33 141 
33 142 
34 35 
34 36 
34 39 
34 46 
34 49 
34 58 
34 66 
34 70 
34 74 
34 82 
34 94 
34 95 
34 105 
34 106 
34 113 
34 118 
34 127 
34 130 
34 140 
34 142 
35 36 
35 46 
35 47 
35 57 
35 59 
35 63 
35 71 
35 83 
35 84 
35 88 
35 95 
35 104 
35 107 
35 115 
35 119 
35 125 
35 131 
35 134 
35 143 
36 42 
36 48 
36 59 
36 60 
36 70 
36 72 
36 79 
36 84 
36 86 
36 96 
36 101 
36 108 
36 116 
36 120 
36 124 
36 132 
36 133 
36 144 
37 38 
37 39 
37 40 
37 41 
37 42 
37 43 
37 44 
37 45 
37 46 
37 47 
37 48 
37 49 
37 58 
37 61 
37 64 
37 73 
37 81 
37 85 
37 89 
37 97 
37 108 
37 109 
37 111 
37 121 
37 128 
37 133 
37 143 
38 39 
38 40 
38 41 
38 42 
38 43 
38 44 
38 45 
38 46 
38 47 
38 48 
38 50 
38 55 
38 62 
38 69 
38 73 
38 74 
38 86 
38 94 
38 98 
38 102 
38 110 
38 112 
38 122 
38 123 
38 134 
38 144 
39 40 
39 41 
39 42 
39 43 
39 44 
39 45 
39 46 
39 47 
39 48 
39 49 
39 51 
39 63 
39 66 
39 74 
39 75 
39 87 
39 95 
39 99 
39 105 
39 111 
39 113 
39 123 
39 127 
39 135 
39 140 
40 41 
40 42 
40 43 
40 44 
40 45 
40 46 
40 47 
40 48 
40 52 
40 56 
40 64 
40 71 
40 76 
40 82 
40 87 
40 88 
40 100 
40 103 
40 109 
40 112 
40 124 
40 132 
40 136 
40 137 
41 42 
41 43 
41 44 
41 45 
41 46 
41 47 
41 48 
41 51 
41 53 
41 65 
41 67 
41 77 
41 78 
41 89 
41 92 
41 100 
41 101 
41 113 
41 120 
41 122 
41 125 
41 137 
41 142 
42 43 
42 44 
42 45 
42 46 
42 47 
42 48 
42 54 
42 59 
42 66 
42 70 
42 78 
42 79 
42 86 
42 90 
42 101 
42 102 
42 114 
42 116 
42 124 
42 126 
42 133 
42 138 
43 44 
43 45 
43 46 
43 47 
43 48 
43 55 
43 60 
43 65 
43 67 
43 76 
43 79 
43 90 
43 91 
43 98 
43 103 
43 115 
43 119 
43 127 
43 130 
43 139 
43 141 
44 45 
44 46 
44 47 
44 48 
44 54 
44 56 
44 61 
44 68 
44 77 
44 80 
44 91 
44 92 
44 104 
44 107 
44 110 
44 116 
44 128 
44 129 
44 135 
44 140 
45 46 
45 47 
45 48 
45 53 
45 57 
45 62 
45 69 
45 75 
45 81 
45 93 
45 96 
45 97 
45 105 
45 117 
45 118 
45 129 
45 131 
45 138 
45 141 
46 47 
46 48 
46 57 
46 58 
46 63 
46 70 
46 82 
46 84 
46 88 
46 94 
46 104 
46 106 
46 115 
46 118 
46 125 
46 130 
46 134 
46 142 
47 48 
47 52 
47 59 
47 71 
47 72 
47 80 
47 83 
47 93 
47 95 
47 99 
47 107 
47 114 
47 119 
47 121 
47 131 
47 139 
47 143 
48 50 
48 60 
48 68 
48 72 
48 83 
48 84 
48 85 
48 96 
48 106 
48 108 
48 117 
48 120 
48 126 
48 132 
48 136 
48 144 
49 50 
49 51 
49 52 
49 53 
49 54 
49 55 
49 56 
49 57 
49 58 
49 59 
49 60 
49 61 
49 66 
49 73 
49 74 
49 85 
49 95 
49 97 
49 105 
49 109 
49 113 
49 121 
49 127 
49 133 
49 140 
50 51 
50 52 
50 53 
50 54 
50 55 
50 56 
50 57 
50 58 
50 59 
50 60 
50 62 
50 68 
50 74 
50 83 
50 85 
50 86 
50 98 
50 106 
50 110 
50 117 
50 122 
50 126 
50 134 
50 136 
51 52 
51 53 
51 54 
51 55 
51 56 
51 57 
51 58 
51 59 
51 60 
51 63 
51 67 
51 75 
51 78 
51 87 
51 92 
51 99 
51 100 
51 111 
51 120 
51 122 
51 123 
51 135 
51 142 
52 53 
52 54 
52 55 
52 56 
52 57 
52 58 
52 59 
52 60 
52 64 
52 72 
52 76 
52 80 
52 88 
52 93 
52 99 
52 100 
52 112 
52 114 
52 121 
52 124 
52 136 
52 139 
53 54 
53 55 
53 56 
53 57 
53 58 
53 59 
53 60 
53 62 
53 65 
53 75 
53 77 
53 89 
53 96 
53 97 
53 101 
53 113 
53 118 
53 125 
53 131 
53 137 
53 138 
54 55 
54 56 
54 57 
54 58 
54 59 
54 60 
54 61 
54 66 
54 77 
54 78 
54 90 
54 91 
54 102 
54 107 
54 110 
54 114 
54 126 
54 129 
54 135 
54 138 
55 56 
55 57 
55 58 
55 59 
55 60 
55 67 
55 69 
55 73 
55 79 
55 91 
55 94 
55 102 
55 103 
55 112 
55 115 
55 123 
55 127 
55 139 
55 144 
56 57 
56 58 
56 59 
56 60 
56 68 
56 71 
56 80 
56 82 
56 87 
56 92 
56 103 
56 104 
56 109 
56 116 
56 128 
56 132 
56 137 
56 140 
57 58 
57 59 
57 60 
57 63 
57 69 
57 81 
57 84 
57 88 
57 93 
57 104 
57 105 
57 115 
57 117 
57 125 
57 129 
57 134 
57 141 
58 59 
58 60 
58 64 
58 70 
58 81 
58 82 
58 89 
58 94 
58 106 
58 108 
58 111 
58 118 
58 128 
58 130 
58 142 
58 143 
59 60 
59 70 
59 71 
59 79 
59 83 
59 86 
59 95 
59 101 
59 107 
59 116 
59 119 
59 124 
59 131 
59 133 
59 143 
60 65 
60 72 
60 76 
60 84 
60 90 
60 96 
60 98 
60 108 
60 119 
60 120 
60 130 
60 132 
60 141 
60 144 
61 62 
61 63 
61 64 
61 65 
61 66 
61 67 
61 68 
61 69 
61 70 
61 71 
61 72 
61 73 
61 77 
61 85 
61 91 
61 97 
61 107 
61 109 
61 110 
61 121 
61 129 
61 133 
61 135 
62 63 
62 64 
62 65 
62 66 
62 67 
62 68 
62 69 
62 70 
62 71 
62 72 
62 74 
62 75 
62 86 
62 96 
62 97 
62 98 
62 110 
62 118 
62 122 
62 131 
62 134 
62 138 
63 64 
63 65 
63 66 
63 67 
63 68 
63 69 
63 70 
63 71 
63 72 
63 75 
63 84 
63 87 
63 88 
63 99 
63 104 
63 111 
63 115 
63 123 
63 125 
63 134 
63 135 
64 65 
64 66 
64 67 
64 68 
64 69 
64 70 
64 71 
64 72 
64 76 
64 81 
64 88 
64 89 
64 100 
64 108 
64 111 
64 112 
64 124 
64 128 
64 136 
64 143 
65 66 
65 67 
65 68 
65 69 
65 70 
65 71 
65 72 
65 76 
65 77 
65 89 
65 90 
65 98 
65 101 
65 113 
65 119 
65 125 
65 130 
65 137 
65 141 
66 67 
66 68 
66 69 
66 70 
66 71 
66 72 
66 74 
66 78 
66 90 
66 95 
66 102 
66 105 
66 113 
66 114 
66 126 
66 127 
66 138 
66 140 
67 68 
67 69 
67 70 
67 71 
67 72 
67 78 
67 79 
67 91 
67 92 
67 100 
67 103 
67 115 
67 120 
67 122 
67 127 
67 139 
67 142 
68 69 
68 70 
68 71 
68 72 
68 80 
68 83 
68 85 
68 92 
68 104 
68 106 
68 116 
68 117 
68 126 
68 128 
68 136 
68 140 
69 70 
69 71 
69 72 
69 73 
69 81 
69 93 
69 94 
69 102 
69 105 
69 112 
69 117 
69 123 
69 129 
69 141 
69 144 
70 71 
70 72 
70 79 
70 82 
70 86 
70 94 
70 101 
70 106 
70 116 
70 118 
70 124 
70 130 
70 133 
70 142 
71 72 
71 82 
71 83 
71 87 
71 95 
71 103 
71 107 
71 109 
71 119 
71 131 
71 132 
71 137 
71 143 
72 80 
72 84 
72 93 
72 96 
72 99 
72 108 
72 114 
72 120 
72 121 
72 132 
72 139 
72 144 
73 74 
73 75 
73 76 
73 77 
73 78 
73 79 
73 80 
73 81 
73 82 
73 83 
73 84 
73 85 
73 94 
73 97 
73 102 
73 109 
73 112 
73 121 
73 123 
73 133 
73 144 
74 75 
74 76 
74 77 
74 78 
74 79 
74 80 
74 81 
74 82 
74 83 
74 84 
74 86 
74 95 
74 98 
74 105 
74 110 
74 113 
74 122 
74 127 
74 134 
74 140 
75 76 
75 77 
75 78 
75 79 
75 80 
75 81 
75 82 
75 83 
75 84 
75 87 
75 96 
75 97 
75 99 
75 111 
75 118 
75 123 
75 131 
75 135 
75 138 
76 77 
76 78 
76 79 
76 80 
76 81 
76 82 
76 83 
76 84 
76 88 
76 90 
76 98 
76 100 
76 112 
76 119 
76 124 
76 130 
76 136 
76 141 
77 78 
77 79 
77 80 
77 81 
77 82 
77 83 
77 84 
77 89 
77 91 
77 101 
77 107 
77 110 
77 113 
77 125 
77 129 
77 135 
77 137 
78 79 
78 80 
78 81 
78 82 
78 83 
78 84 
78 90 
78 92 
78 100 
78 102 
78 114 
78 120 
78 122 
78 126 
78 138 
78 142 
79 80 
79 81 
79 82 
79 83 
79 84 
79 86 
79 91 
79 101 
79 103 
79 115 
79 116 
79 124 
79 127 
79 133 
79 139 
80 81 
80 82 
80 83 
80 84 
80 92 
80 93 
80 99 
80 104 
80 114 
80 116 
80 121 
80 128 
80 139 
80 140 
81 82 
81 83 
81 84 
81 89 
81 93 
81 105 
81 108 
81 111 
81 117 
81 128 
81 129 
81 141 
81 143 
82 83 
82 84 
82 87 
82 94 
82 103 
82 106 
82 109 
82 118 
82 130 
82 132 
82 137 
82 142 
83 84 
83 85 
83 95 
83 106 
83 107 
83 117 
83 119 
83 126 
83 131 
83 136 
83 143 
84 88 
84 96 
84 104 
84 108 
84 115 
84 120 
84 125 
84 132 
84 134 
84 144 
85 86 
85 87 
85 88 
85 89 
85 90 
85 91 
85 92 
85 93 
85 94 
85 95 
85 96 
85 97 
85 106 
85 109 
85 117 
85 121 
85 126 
85 133 
85 136 
86 87 
86 88 
86 89 
86 90 
86 91 
86 92 
86 93 
86 94 
86 95 
86 96 
86 98 
86 101 
86 110 
86 116 
86 122 
86 124 
86 133 
86 134 
87 88 
87 89 
87 90 
87 91 
87 92 
87 93 
87 94 
87 95 
87 96 
87 99 
87 103 
87 109 
87 111 
87 123 
87 132 
87 135 
87 137 
88 89 
88 90 
88 91 
88 92 
88 93 
88 94 
88 95 
88 96 
88 100 
88 104 
88 112 
88 115 
88 124 
88 125 
88 134 
88 136 
89 90 
89 91 
89 92 
89 93 
89 94 
89 95 
89 96 
89 101 
89 108 
89 111 
89 113 
89 125 
89 128 
89 137 
89 143 
90 91 
90 92 
90 93 
90 94 
90 95 
90 96 
90 98 
90 102 
90 114 
90 119 
90 126 
90 130 
90 138 
90 141 
91 92 
91 93 
91 94 
91 95 
91 96 
91 103 
91 107 
91 110 
91 115 
91 127 
91 129 
91 135 
91 139 
92 93 
92 94 
92 95 
92 96 
92 100 
92 104 
92 116 
92 120 
92 122 
92 128 
92 140 
92 142 
93 94 
93 95 
93 96 
93 99 
93 105 
93 114 
93 117 
93 121 
93 129 
93 139 
93 141 
94 95 
94 96 
94 102 
94 106 
94 112 
94 118 
94 123 
94 130 
94 142 
94 144 
95 96 
95 105 
95 107 
95 113 
95 119 
95 127 
95 131 
95 140 
95 143 
96 97 
96 108 
96 118 
96 120 
96 131 
96 132 
96 138 
96 144 
97 98 
97 99 
97 100 
97 101 
97 102 
97 103 
97 104 
97 105 
97 106 
97 107 
97 108 
97 109 
97 118 
97 121 
97 131 
97 133 
97 138 
98 99 
98 100 
98 101 
98 102 
98 103 
98 104 
98 105 
98 106 
98 107 
98 108 
98 110 
98 119 
98 122 
98 130 
98 134 
98 141 
99 100 
99 101 
99 102 
99 103 
99 104 
99 105 
99 106 
99 107 
99 108 
99 111 
99 114 
99 121 
99 123 
99 135 
99 139 
100 101 
100 102 
100 103 
100 104 
100 105 
100 106 
100 107 
100 108 
100 112 
100 120 
100 122 
100 124 
100 136 
100 142 
101 102 
101 103 
101 104 
101 105 
101 106 
101 107 
101 108 
101 113 
101 116 
101 124 
101 125 
101 133 
101 137 
102 103 
102 104 
102 105 
102 106 
102 107 
102 108 
102 112 
102 114 
102 123 
102 126 
102 138 
102 144 
103 104 
103 105 
103 106 
103 107 
103 108 
103 109 
103 115 
103 127 
103 132 
103 137 
103 139 
104 105 
104 106 
104 107 
104 108 
104 115 
104 116 
104 125 
104 128 
104 134 
104 140 
105 106 
105 107 
105 108 
105 113 
105 117 
105 127 
105 129 
105 140 
105 141 
106 107 
106 108 
106 117 
106 118 
106 126 
106 130 
106 136 
106 142 
107 108 
107 110 
107 119 
107 129 
107 131 
107 135 
107 143 
108 111 
108 120 
108 128 
108 132 
108 143 
108 144 
109 110 
109 111 
109 112 
109 113 
109 114 
109 115 
109 116 
109 117 
109 118 
109 119 
109 120 
109 121 
109 132 
109 133 
109 137 
110 111 
110 112 
110 113 
110 114 
110 115 
110 116 
110 117 
110 118 
110 119 
110 120 
110 122 
110 129 
110 134 
110 135 
111 112 
111 113 
111 114 
111 115 
111 116 
111 117 
111 118 
111 119 
111 120 
111 123 
111 128 
111 135 
111 143 
112 113 
112 114 
112 115 
112 116 
112 117 
112 118 
112 119 
112 120 
112 123 
112 124 
112 136 
112 144 
113 114 
113 115 
113 116 
113 117 
113 118 
113 119 
113 120 
113 125 
113 127 
113 137 
113 140 
114 115 
114 116 
114 117 
114 118 
114 119 
114 120 
114 121 
114 126 
114 138 
114 139 
115 116 
115 117 
115 118 
115 119 
115 120 
115 125 
115 127 
115 134 
115 139 
116 117 
116 118 
116 119 
116 120 
116 124 
116 128 
116 133 
116 140 
117 118 
117 119 
117 120 
117 126 
117 129 
117 136 
117 141 
118 119 
118 120 
118 130 
118 131 
118 138 
118 142 
119 120 
119 130 
119 131 
119 141 
119 143 
120 122 
120 132 
120 142 
120 144 
121 122 
121 123 
121 124 
121 125 
121 126 
121 127 
121 128 
121 129 
121 130 
121 131 
121 132 
121 133 
121 139 
122 123 
122 124 
122 125 
122 126 
122 127 
122 128 
122 129 
122 130 
122 131 
122 132 
122 134 
122 142 
123 124 
123 125 
123 126 
123 127 
123 128 
123 129 
123 130 
123 131 
123 132 
123 135 
123 144 
124 125 
124 126 
124 127 
124 128 
124 129 
124 130 
124 131 
124 132 
124 133 
124 136 
125 126 
125 127 
125 128 
125 129 
125 130 
125 131 
125 132 
125 134 
125 137 
126 127 
126 128 
126 129 
126 130 
126 131 
126 132 
126 136 
126 138 
127 128 
127 129 
127 130 
127 131 
127 132 
127 139 
127 140 
128 129 
128 130 
128 131 
128 132 
128 140 
128 143 
129 130 
129 131 
129 132 
129 135 
129 141 
130 131 
130 132 
130 141 
130 142 
131 132 
131 138 
131 143 
132 137 
132 144 
133 134 
133 135 
133 136 
133 137 
133 138 
133 139 
133 140 
133 141 
133 142 
133 143 
133 144 
134 135 
134 136 
134 137 
134 138 
134 139 
134 140 
134 141 
134 142 
134 143 
134 144 
135 136 
135 137 
135 138 
135 139 
135 140 
135 141 
135 142 
135 143 
135 144 
136 137 
136 138 
136 139 
136 140 
136 141 
136 142 
136 143 
136 144 
137 138 
137 139 
137 140 
137 141 
137 142 
137 143 
137 144 
138 139 
138 140 
138 141 
138 142 
138 143 
138 144 
139 140 
139 141 
139 142 
139 143 
139 144 
140 141 
140 142 
140 143 
140 144 
141 142 
141 143 
141 144 
142 143 
142 144 
143 144 
